(set-logic QF_IDL)
(set-info :source |
Job_Shop_Scheduling Problem from Papadimitriou-Steiglitz is translated by Hyondeuk Kim in SMT-LIB format benchmark
|)
(set-info :smt-lib-version 2.0)
(set-info :category "crafted")
(set-info :status sat)
(declare-fun s1_1 () Int)
(declare-fun s1_2 () Int)
(declare-fun s2_1 () Int)
(declare-fun s2_2 () Int)
(declare-fun s3_1 () Int)
(declare-fun s3_2 () Int)
(declare-fun s4_1 () Int)
(declare-fun s4_2 () Int)
(declare-fun s5_1 () Int)
(declare-fun s5_2 () Int)
(declare-fun s6_1 () Int)
(declare-fun s6_2 () Int)
(declare-fun s7_1 () Int)
(declare-fun s7_2 () Int)
(declare-fun s8_1 () Int)
(declare-fun s8_2 () Int)
(declare-fun s9_1 () Int)
(declare-fun s9_2 () Int)
(declare-fun s10_1 () Int)
(declare-fun s10_2 () Int)
(declare-fun s11_1 () Int)
(declare-fun s11_2 () Int)
(declare-fun s12_1 () Int)
(declare-fun s12_2 () Int)
(declare-fun m1_1 () Int)
(declare-fun m2_1 () Int)
(declare-fun m3_1 () Int)
(declare-fun m4_1 () Int)
(declare-fun m5_1 () Int)
(declare-fun m6_1 () Int)
(declare-fun m7_1 () Int)
(declare-fun m8_1 () Int)
(declare-fun m9_1 () Int)
(declare-fun m10_1 () Int)
(declare-fun m11_1 () Int)
(declare-fun m12_1 () Int)
(declare-fun m1_2 () Int)
(declare-fun m2_2 () Int)
(declare-fun m3_2 () Int)
(declare-fun m4_2 () Int)
(declare-fun m5_2 () Int)
(declare-fun m6_2 () Int)
(declare-fun m7_2 () Int)
(declare-fun m8_2 () Int)
(declare-fun m9_2 () Int)
(declare-fun m10_2 () Int)
(declare-fun m11_2 () Int)
(declare-fun m12_2 () Int)
(declare-fun ref () Int)
(assert (let ((?v_0 (- m1_1 ref)) (?v_1 (- m2_1 ref)) (?v_2 (- m3_1 ref)) (?v_3 (- m4_1 ref)) (?v_4 (- m5_1 ref)) (?v_5 (- m6_1 ref)) (?v_6 (- m7_1 ref)) (?v_7 (- m8_1 ref)) (?v_8 (- m9_1 ref)) (?v_9 (- m10_1 ref)) (?v_10 (- m11_1 ref)) (?v_11 (- m12_1 ref)) (?v_12 (- m1_2 ref)) (?v_13 (- m2_2 ref)) (?v_14 (- m3_2 ref)) (?v_15 (- m4_2 ref)) (?v_16 (- m5_2 ref)) (?v_17 (- m6_2 ref)) (?v_18 (- m7_2 ref)) (?v_19 (- m8_2 ref)) (?v_20 (- m9_2 ref)) (?v_21 (- m10_2 ref)) (?v_22 (- m11_2 ref)) (?v_23 (- m12_2 ref))) (and (<= ?v_0 5) (<= ?v_1 5) (<= ?v_2 5) (<= ?v_3 5) (<= ?v_4 5) (<= ?v_5 5) (<= ?v_6 5) (<= ?v_7 5) (<= ?v_8 5) (<= ?v_9 5) (<= ?v_10 5) (<= ?v_11 5) (<= ?v_12 5) (<= ?v_13 5) (<= ?v_14 5) (<= ?v_15 5) (<= ?v_16 5) (<= ?v_17 5) (<= ?v_18 5) (<= ?v_19 5) (<= ?v_20 5) (<= ?v_21 5) (<= ?v_22 5) (<= ?v_23 5) (>= ?v_0 0) (>= ?v_1 0) (>= ?v_2 0) (>= ?v_3 0) (>= ?v_4 0) (>= ?v_5 0) (>= ?v_6 0) (>= ?v_7 0) (>= ?v_8 0) (>= ?v_9 0) (>= ?v_10 0) (>= ?v_11 0) (>= ?v_12 0) (>= ?v_13 0) (>= ?v_14 0) (>= ?v_15 0) (>= ?v_16 0) (>= ?v_17 0) (>= ?v_18 0) (>= ?v_19 0) (>= ?v_20 0) (>= ?v_21 0) (>= ?v_22 0) (>= ?v_23 0) (or (not (= (- m1_1 m2_1) 0)) (>= (- s1_1 s2_1) 4) (>= (- s2_1 s1_1) 4)) (or (not (= (- m1_1 m3_1) 0)) (>= (- s1_1 s3_1) 4) (>= (- s3_1 s1_1) 4)) (or (not (= (- m1_1 m4_1) 0)) (>= (- s1_1 s4_1) 4) (>= (- s4_1 s1_1) 4)) (or (not (= (- m1_1 m5_1) 0)) (>= (- s1_1 s5_1) 4) (>= (- s5_1 s1_1) 4)) (or (not (= (- m1_1 m6_1) 0)) (>= (- s1_1 s6_1) 4) (>= (- s6_1 s1_1) 4)) (or (not (= (- m1_1 m7_1) 0)) (>= (- s1_1 s7_1) 4) (>= (- s7_1 s1_1) 4)) (or (not (= (- m1_1 m8_1) 0)) (>= (- s1_1 s8_1) 4) (>= (- s8_1 s1_1) 4)) (or (not (= (- m1_1 m9_1) 0)) (>= (- s1_1 s9_1) 4) (>= (- s9_1 s1_1) 4)) (or (not (= (- m1_1 m10_1) 0)) (>= (- s1_1 s10_1) 4) (>= (- s10_1 s1_1) 4)) (or (not (= (- m1_1 m11_1) 0)) (>= (- s1_1 s11_1) 4) (>= (- s11_1 s1_1) 4)) (or (not (= (- m1_1 m12_1) 0)) (>= (- s1_1 s12_1) 4) (>= (- s12_1 s1_1) 4)) (or (not (= (- m2_1 m3_1) 0)) (>= (- s2_1 s3_1) 4) (>= (- s3_1 s2_1) 4)) (or (not (= (- m2_1 m4_1) 0)) (>= (- s2_1 s4_1) 4) (>= (- s4_1 s2_1) 4)) (or (not (= (- m2_1 m5_1) 0)) (>= (- s2_1 s5_1) 4) (>= (- s5_1 s2_1) 4)) (or (not (= (- m2_1 m6_1) 0)) (>= (- s2_1 s6_1) 4) (>= (- s6_1 s2_1) 4)) (or (not (= (- m2_1 m7_1) 0)) (>= (- s2_1 s7_1) 4) (>= (- s7_1 s2_1) 4)) (or (not (= (- m2_1 m8_1) 0)) (>= (- s2_1 s8_1) 4) (>= (- s8_1 s2_1) 4)) (or (not (= (- m2_1 m9_1) 0)) (>= (- s2_1 s9_1) 4) (>= (- s9_1 s2_1) 4)) (or (not (= (- m2_1 m10_1) 0)) (>= (- s2_1 s10_1) 4) (>= (- s10_1 s2_1) 4)) (or (not (= (- m2_1 m11_1) 0)) (>= (- s2_1 s11_1) 4) (>= (- s11_1 s2_1) 4)) (or (not (= (- m2_1 m12_1) 0)) (>= (- s2_1 s12_1) 4) (>= (- s12_1 s2_1) 4)) (or (not (= (- m3_1 m4_1) 0)) (>= (- s3_1 s4_1) 4) (>= (- s4_1 s3_1) 4)) (or (not (= (- m3_1 m5_1) 0)) (>= (- s3_1 s5_1) 4) (>= (- s5_1 s3_1) 4)) (or (not (= (- m3_1 m6_1) 0)) (>= (- s3_1 s6_1) 4) (>= (- s6_1 s3_1) 4)) (or (not (= (- m3_1 m7_1) 0)) (>= (- s3_1 s7_1) 4) (>= (- s7_1 s3_1) 4)) (or (not (= (- m3_1 m8_1) 0)) (>= (- s3_1 s8_1) 4) (>= (- s8_1 s3_1) 4)) (or (not (= (- m3_1 m9_1) 0)) (>= (- s3_1 s9_1) 4) (>= (- s9_1 s3_1) 4)) (or (not (= (- m3_1 m10_1) 0)) (>= (- s3_1 s10_1) 4) (>= (- s10_1 s3_1) 4)) (or (not (= (- m3_1 m11_1) 0)) (>= (- s3_1 s11_1) 4) (>= (- s11_1 s3_1) 4)) (or (not (= (- m3_1 m12_1) 0)) (>= (- s3_1 s12_1) 4) (>= (- s12_1 s3_1) 4)) (or (not (= (- m4_1 m5_1) 0)) (>= (- s4_1 s5_1) 4) (>= (- s5_1 s4_1) 4)) (or (not (= (- m4_1 m6_1) 0)) (>= (- s4_1 s6_1) 4) (>= (- s6_1 s4_1) 4)) (or (not (= (- m4_1 m7_1) 0)) (>= (- s4_1 s7_1) 4) (>= (- s7_1 s4_1) 4)) (or (not (= (- m4_1 m8_1) 0)) (>= (- s4_1 s8_1) 4) (>= (- s8_1 s4_1) 4)) (or (not (= (- m4_1 m9_1) 0)) (>= (- s4_1 s9_1) 4) (>= (- s9_1 s4_1) 4)) (or (not (= (- m4_1 m10_1) 0)) (>= (- s4_1 s10_1) 4) (>= (- s10_1 s4_1) 4)) (or (not (= (- m4_1 m11_1) 0)) (>= (- s4_1 s11_1) 4) (>= (- s11_1 s4_1) 4)) (or (not (= (- m4_1 m12_1) 0)) (>= (- s4_1 s12_1) 4) (>= (- s12_1 s4_1) 4)) (or (not (= (- m5_1 m6_1) 0)) (>= (- s5_1 s6_1) 4) (>= (- s6_1 s5_1) 4)) (or (not (= (- m5_1 m7_1) 0)) (>= (- s5_1 s7_1) 4) (>= (- s7_1 s5_1) 4)) (or (not (= (- m5_1 m8_1) 0)) (>= (- s5_1 s8_1) 4) (>= (- s8_1 s5_1) 4)) (or (not (= (- m5_1 m9_1) 0)) (>= (- s5_1 s9_1) 4) (>= (- s9_1 s5_1) 4)) (or (not (= (- m5_1 m10_1) 0)) (>= (- s5_1 s10_1) 4) (>= (- s10_1 s5_1) 4)) (or (not (= (- m5_1 m11_1) 0)) (>= (- s5_1 s11_1) 4) (>= (- s11_1 s5_1) 4)) (or (not (= (- m5_1 m12_1) 0)) (>= (- s5_1 s12_1) 4) (>= (- s12_1 s5_1) 4)) (or (not (= (- m6_1 m7_1) 0)) (>= (- s6_1 s7_1) 4) (>= (- s7_1 s6_1) 4)) (or (not (= (- m6_1 m8_1) 0)) (>= (- s6_1 s8_1) 4) (>= (- s8_1 s6_1) 4)) (or (not (= (- m6_1 m9_1) 0)) (>= (- s6_1 s9_1) 4) (>= (- s9_1 s6_1) 4)) (or (not (= (- m6_1 m10_1) 0)) (>= (- s6_1 s10_1) 4) (>= (- s10_1 s6_1) 4)) (or (not (= (- m6_1 m11_1) 0)) (>= (- s6_1 s11_1) 4) (>= (- s11_1 s6_1) 4)) (or (not (= (- m6_1 m12_1) 0)) (>= (- s6_1 s12_1) 4) (>= (- s12_1 s6_1) 4)) (or (not (= (- m7_1 m8_1) 0)) (>= (- s7_1 s8_1) 4) (>= (- s8_1 s7_1) 4)) (or (not (= (- m7_1 m9_1) 0)) (>= (- s7_1 s9_1) 4) (>= (- s9_1 s7_1) 4)) (or (not (= (- m7_1 m10_1) 0)) (>= (- s7_1 s10_1) 4) (>= (- s10_1 s7_1) 4)) (or (not (= (- m7_1 m11_1) 0)) (>= (- s7_1 s11_1) 4) (>= (- s11_1 s7_1) 4)) (or (not (= (- m7_1 m12_1) 0)) (>= (- s7_1 s12_1) 4) (>= (- s12_1 s7_1) 4)) (or (not (= (- m8_1 m9_1) 0)) (>= (- s8_1 s9_1) 4) (>= (- s9_1 s8_1) 4)) (or (not (= (- m8_1 m10_1) 0)) (>= (- s8_1 s10_1) 4) (>= (- s10_1 s8_1) 4)) (or (not (= (- m8_1 m11_1) 0)) (>= (- s8_1 s11_1) 4) (>= (- s11_1 s8_1) 4)) (or (not (= (- m8_1 m12_1) 0)) (>= (- s8_1 s12_1) 4) (>= (- s12_1 s8_1) 4)) (or (not (= (- m9_1 m10_1) 0)) (>= (- s9_1 s10_1) 4) (>= (- s10_1 s9_1) 4)) (or (not (= (- m9_1 m11_1) 0)) (>= (- s9_1 s11_1) 4) (>= (- s11_1 s9_1) 4)) (or (not (= (- m9_1 m12_1) 0)) (>= (- s9_1 s12_1) 4) (>= (- s12_1 s9_1) 4)) (or (not (= (- m10_1 m11_1) 0)) (>= (- s10_1 s11_1) 4) (>= (- s11_1 s10_1) 4)) (or (not (= (- m10_1 m12_1) 0)) (>= (- s10_1 s12_1) 4) (>= (- s12_1 s10_1) 4)) (or (not (= (- m11_1 m12_1) 0)) (>= (- s11_1 s12_1) 4) (>= (- s12_1 s11_1) 4)) (or (not (= (- m1_2 m2_2) 0)) (>= (- s1_2 s2_2) 4) (>= (- s2_2 s1_2) 4)) (or (not (= (- m1_2 m3_2) 0)) (>= (- s1_2 s3_2) 4) (>= (- s3_2 s1_2) 4)) (or (not (= (- m1_2 m4_2) 0)) (>= (- s1_2 s4_2) 4) (>= (- s4_2 s1_2) 4)) (or (not (= (- m1_2 m5_2) 0)) (>= (- s1_2 s5_2) 4) (>= (- s5_2 s1_2) 4)) (or (not (= (- m1_2 m6_2) 0)) (>= (- s1_2 s6_2) 4) (>= (- s6_2 s1_2) 4)) (or (not (= (- m1_2 m7_2) 0)) (>= (- s1_2 s7_2) 4) (>= (- s7_2 s1_2) 4)) (or (not (= (- m1_2 m8_2) 0)) (>= (- s1_2 s8_2) 4) (>= (- s8_2 s1_2) 4)) (or (not (= (- m1_2 m9_2) 0)) (>= (- s1_2 s9_2) 4) (>= (- s9_2 s1_2) 4)) (or (not (= (- m1_2 m10_2) 0)) (>= (- s1_2 s10_2) 4) (>= (- s10_2 s1_2) 4)) (or (not (= (- m1_2 m11_2) 0)) (>= (- s1_2 s11_2) 4) (>= (- s11_2 s1_2) 4)) (or (not (= (- m1_2 m12_2) 0)) (>= (- s1_2 s12_2) 4) (>= (- s12_2 s1_2) 4)) (or (not (= (- m2_2 m3_2) 0)) (>= (- s2_2 s3_2) 4) (>= (- s3_2 s2_2) 4)) (or (not (= (- m2_2 m4_2) 0)) (>= (- s2_2 s4_2) 4) (>= (- s4_2 s2_2) 4)) (or (not (= (- m2_2 m5_2) 0)) (>= (- s2_2 s5_2) 4) (>= (- s5_2 s2_2) 4)) (or (not (= (- m2_2 m6_2) 0)) (>= (- s2_2 s6_2) 4) (>= (- s6_2 s2_2) 4)) (or (not (= (- m2_2 m7_2) 0)) (>= (- s2_2 s7_2) 4) (>= (- s7_2 s2_2) 4)) (or (not (= (- m2_2 m8_2) 0)) (>= (- s2_2 s8_2) 4) (>= (- s8_2 s2_2) 4)) (or (not (= (- m2_2 m9_2) 0)) (>= (- s2_2 s9_2) 4) (>= (- s9_2 s2_2) 4)) (or (not (= (- m2_2 m10_2) 0)) (>= (- s2_2 s10_2) 4) (>= (- s10_2 s2_2) 4)) (or (not (= (- m2_2 m11_2) 0)) (>= (- s2_2 s11_2) 4) (>= (- s11_2 s2_2) 4)) (or (not (= (- m2_2 m12_2) 0)) (>= (- s2_2 s12_2) 4) (>= (- s12_2 s2_2) 4)) (or (not (= (- m3_2 m4_2) 0)) (>= (- s3_2 s4_2) 4) (>= (- s4_2 s3_2) 4)) (or (not (= (- m3_2 m5_2) 0)) (>= (- s3_2 s5_2) 4) (>= (- s5_2 s3_2) 4)) (or (not (= (- m3_2 m6_2) 0)) (>= (- s3_2 s6_2) 4) (>= (- s6_2 s3_2) 4)) (or (not (= (- m3_2 m7_2) 0)) (>= (- s3_2 s7_2) 4) (>= (- s7_2 s3_2) 4)) (or (not (= (- m3_2 m8_2) 0)) (>= (- s3_2 s8_2) 4) (>= (- s8_2 s3_2) 4)) (or (not (= (- m3_2 m9_2) 0)) (>= (- s3_2 s9_2) 4) (>= (- s9_2 s3_2) 4)) (or (not (= (- m3_2 m10_2) 0)) (>= (- s3_2 s10_2) 4) (>= (- s10_2 s3_2) 4)) (or (not (= (- m3_2 m11_2) 0)) (>= (- s3_2 s11_2) 4) (>= (- s11_2 s3_2) 4)) (or (not (= (- m3_2 m12_2) 0)) (>= (- s3_2 s12_2) 4) (>= (- s12_2 s3_2) 4)) (or (not (= (- m4_2 m5_2) 0)) (>= (- s4_2 s5_2) 4) (>= (- s5_2 s4_2) 4)) (or (not (= (- m4_2 m6_2) 0)) (>= (- s4_2 s6_2) 4) (>= (- s6_2 s4_2) 4)) (or (not (= (- m4_2 m7_2) 0)) (>= (- s4_2 s7_2) 4) (>= (- s7_2 s4_2) 4)) (or (not (= (- m4_2 m8_2) 0)) (>= (- s4_2 s8_2) 4) (>= (- s8_2 s4_2) 4)) (or (not (= (- m4_2 m9_2) 0)) (>= (- s4_2 s9_2) 4) (>= (- s9_2 s4_2) 4)) (or (not (= (- m4_2 m10_2) 0)) (>= (- s4_2 s10_2) 4) (>= (- s10_2 s4_2) 4)) (or (not (= (- m4_2 m11_2) 0)) (>= (- s4_2 s11_2) 4) (>= (- s11_2 s4_2) 4)) (or (not (= (- m4_2 m12_2) 0)) (>= (- s4_2 s12_2) 4) (>= (- s12_2 s4_2) 4)) (or (not (= (- m5_2 m6_2) 0)) (>= (- s5_2 s6_2) 4) (>= (- s6_2 s5_2) 4)) (or (not (= (- m5_2 m7_2) 0)) (>= (- s5_2 s7_2) 4) (>= (- s7_2 s5_2) 4)) (or (not (= (- m5_2 m8_2) 0)) (>= (- s5_2 s8_2) 4) (>= (- s8_2 s5_2) 4)) (or (not (= (- m5_2 m9_2) 0)) (>= (- s5_2 s9_2) 4) (>= (- s9_2 s5_2) 4)) (or (not (= (- m5_2 m10_2) 0)) (>= (- s5_2 s10_2) 4) (>= (- s10_2 s5_2) 4)) (or (not (= (- m5_2 m11_2) 0)) (>= (- s5_2 s11_2) 4) (>= (- s11_2 s5_2) 4)) (or (not (= (- m5_2 m12_2) 0)) (>= (- s5_2 s12_2) 4) (>= (- s12_2 s5_2) 4)) (or (not (= (- m6_2 m7_2) 0)) (>= (- s6_2 s7_2) 4) (>= (- s7_2 s6_2) 4)) (or (not (= (- m6_2 m8_2) 0)) (>= (- s6_2 s8_2) 4) (>= (- s8_2 s6_2) 4)) (or (not (= (- m6_2 m9_2) 0)) (>= (- s6_2 s9_2) 4) (>= (- s9_2 s6_2) 4)) (or (not (= (- m6_2 m10_2) 0)) (>= (- s6_2 s10_2) 4) (>= (- s10_2 s6_2) 4)) (or (not (= (- m6_2 m11_2) 0)) (>= (- s6_2 s11_2) 4) (>= (- s11_2 s6_2) 4)) (or (not (= (- m6_2 m12_2) 0)) (>= (- s6_2 s12_2) 4) (>= (- s12_2 s6_2) 4)) (or (not (= (- m7_2 m8_2) 0)) (>= (- s7_2 s8_2) 4) (>= (- s8_2 s7_2) 4)) (or (not (= (- m7_2 m9_2) 0)) (>= (- s7_2 s9_2) 4) (>= (- s9_2 s7_2) 4)) (or (not (= (- m7_2 m10_2) 0)) (>= (- s7_2 s10_2) 4) (>= (- s10_2 s7_2) 4)) (or (not (= (- m7_2 m11_2) 0)) (>= (- s7_2 s11_2) 4) (>= (- s11_2 s7_2) 4)) (or (not (= (- m7_2 m12_2) 0)) (>= (- s7_2 s12_2) 4) (>= (- s12_2 s7_2) 4)) (or (not (= (- m8_2 m9_2) 0)) (>= (- s8_2 s9_2) 4) (>= (- s9_2 s8_2) 4)) (or (not (= (- m8_2 m10_2) 0)) (>= (- s8_2 s10_2) 4) (>= (- s10_2 s8_2) 4)) (or (not (= (- m8_2 m11_2) 0)) (>= (- s8_2 s11_2) 4) (>= (- s11_2 s8_2) 4)) (or (not (= (- m8_2 m12_2) 0)) (>= (- s8_2 s12_2) 4) (>= (- s12_2 s8_2) 4)) (or (not (= (- m9_2 m10_2) 0)) (>= (- s9_2 s10_2) 4) (>= (- s10_2 s9_2) 4)) (or (not (= (- m9_2 m11_2) 0)) (>= (- s9_2 s11_2) 4) (>= (- s11_2 s9_2) 4)) (or (not (= (- m9_2 m12_2) 0)) (>= (- s9_2 s12_2) 4) (>= (- s12_2 s9_2) 4)) (or (not (= (- m10_2 m11_2) 0)) (>= (- s10_2 s11_2) 4) (>= (- s11_2 s10_2) 4)) (or (not (= (- m10_2 m12_2) 0)) (>= (- s10_2 s12_2) 4) (>= (- s12_2 s10_2) 4)) (or (not (= (- m11_2 m12_2) 0)) (>= (- s11_2 s12_2) 4) (>= (- s12_2 s11_2) 4)) (>= (- s1_2 s1_1) 4) (>= (- s2_2 s2_1) 4) (>= (- s3_2 s3_1) 4) (>= (- s4_2 s4_1) 4) (>= (- s5_2 s5_1) 4) (>= (- s6_2 s6_1) 4) (>= (- s7_2 s7_1) 4) (>= (- s8_2 s8_1) 4) (>= (- s9_2 s9_1) 4) (>= (- s10_2 s10_1) 4) (>= (- s11_2 s11_1) 4) (>= (- s12_2 s12_1) 4) (<= (- s1_2 ref) 8) (<= (- s2_2 ref) 8) (<= (- s3_2 ref) 8) (<= (- s4_2 ref) 8) (<= (- s5_2 ref) 8) (<= (- s6_2 ref) 8) (<= (- s7_2 ref) 8) (<= (- s8_2 ref) 8) (<= (- s9_2 ref) 8) (<= (- s10_2 ref) 8) (<= (- s11_2 ref) 8) (<= (- s12_2 ref) 8) (>= (- s1_1 ref) 0) (>= (- s2_1 ref) 0) (>= (- s3_1 ref) 0) (>= (- s4_1 ref) 0) (>= (- s5_1 ref) 0) (>= (- s6_1 ref) 0) (>= (- s7_1 ref) 0) (>= (- s8_1 ref) 0) (>= (- s9_1 ref) 0) (>= (- s10_1 ref) 0) (>= (- s11_1 ref) 0) (>= (- s12_1 ref) 0))))
(check-sat)
(exit)
